language ESSENCE' 1.0

letting jobs = 102
letting horizon = 803
letting resourcesRenew = 2
letting resourcesNonrenew = 2
letting resourceLimits = [43, 49, 383, 394]
letting successors = [[2, 3, 4, 5, 6, 7, 8, 9, 10, 11, 12, 13, 14, 16, 17, 18, 19, 20, 21, 23, 27, 28, 29, 31, 32, 35, 52], [100, 97, 71, 60, 59, 58, 56, 55, 50, 49, 48, 46, 45, 44, 43, 42, 38, 34, 26, 15], [99, 97, 96, 95, 94, 93, 90, 70, 69, 68, 64, 62, 58, 57, 56, 54, 46, 42, 40, 34, 30, 25], [100, 99, 90, 71, 70, 69, 64, 58, 56, 54, 51, 49, 46, 45, 44, 37, 34, 24], [98, 97, 90, 71, 69, 63, 62, 60, 58, 54, 53, 45, 37, 36, 26], [101, 95, 93, 71, 70, 69, 63, 62, 58, 56, 46, 40, 26, 22], [98, 71, 69, 66, 64, 58, 57, 50, 49, 47, 42, 41, 39, 38], [97, 96, 94, 93, 92, 88, 85, 70, 69, 64, 63, 61, 60, 55, 53, 47, 45, 44], [99, 97, 93, 91, 85, 64, 63, 61, 54, 45, 43, 41, 40, 30], [96, 95, 94, 93, 92, 91, 89, 88, 85, 84, 71, 70, 69, 68, 67, 65, 63, 61, 58, 55, 50, 46], [99, 97, 95, 94, 93, 92, 91, 90, 87, 70, 63, 62, 58, 57, 34, 30], [99, 97, 93, 90, 84, 68, 62, 61, 60, 54, 53, 47, 44, 33], [99, 94, 90, 87, 70, 68, 61, 58, 51, 50, 44, 26], [99, 97, 96, 92, 91, 90, 89, 86, 85, 69, 68, 67, 66, 58, 54, 46, 37], [99, 98, 95, 94, 92, 91, 90, 89, 86, 85, 84, 70, 69, 67, 65, 63, 57, 36], [101, 98, 96, 93, 91, 89, 88, 87, 69, 68, 66, 65, 57, 47, 42], [100, 99, 95, 91, 88, 85, 84, 83, 82, 81, 78, 70, 68, 65, 63, 55, 53], [100, 97, 94, 92, 91, 90, 85, 76, 69, 68, 66, 65, 47, 45], [99, 98, 95, 94, 92, 90, 89, 88, 87, 86, 84, 83, 77, 75, 68, 66, 64, 63, 62, 57], [95, 94, 93, 90, 85, 84, 67, 64, 62, 61, 47, 46, 44], [101, 97, 93, 92, 85, 79, 75, 68, 61, 54, 46, 45], [97, 96, 92, 91, 90, 89, 88, 87, 86, 85, 84, 83, 82, 79, 76, 75, 68, 61, 60, 57], [100, 96, 91, 90, 89, 88, 86, 85, 84, 82, 80, 79, 78, 76, 70, 68, 67, 66, 65, 61], [97, 95, 93, 92, 91, 89, 87, 84, 83, 82, 78, 75, 68, 65, 61, 48], [100, 98, 92, 91, 88, 86, 85, 82, 76, 71, 67, 66, 63, 47], [92, 91, 89, 88, 86, 85, 84, 82, 80, 73, 65, 64, 47], [98, 94, 93, 91, 90, 88, 87, 84, 73, 69, 65, 63, 47], [92, 90, 89, 88, 84, 79, 70, 68, 66, 58, 57], [91, 89, 85, 83, 82, 81, 79, 77, 76, 75, 71, 66, 65, 57], [89, 84, 82, 80, 78, 67, 66, 65, 47], [96, 94, 87, 86, 85, 83, 82, 81, 79, 77, 76, 75, 74, 73, 65], [99, 90, 88, 81, 80, 76, 74, 69, 67, 66, 65], [96, 95, 86, 85, 83, 76, 69, 66, 57], [86, 85, 79, 78, 77, 76, 74, 67, 65, 61], [97, 96, 88, 84, 83, 80, 78, 76, 75, 74, 73, 65], [96, 93, 82, 80, 78, 77, 76, 75, 74, 68, 66], [94, 88, 79, 77, 76, 75, 74, 65, 61], [91, 90, 89, 77, 75, 68, 65, 63], [97, 96, 94, 87, 82, 80, 79, 76, 75, 73, 72], [98, 86, 84, 80, 79, 78, 76, 74, 72, 66], [94, 92, 86, 81, 78, 77, 74, 73, 67], [85, 84, 81, 77, 76, 74, 72, 67], [94, 88, 87, 83, 81, 77, 72, 67], [86, 83, 80, 78, 74, 66, 65], [95, 89, 84, 73, 57], [87, 83, 80, 77, 76, 74, 73, 72], [83, 81, 79, 77, 75, 74, 72], [86, 81, 79, 77, 74, 73, 72], [93, 84, 83, 78, 76, 65], [81, 80, 78, 76, 75, 72], [93, 86, 79, 78, 75, 72], [81, 79, 77, 75, 73, 72], [87, 77, 76, 73, 67], [88, 82, 78, 74, 72], [98, 90, 87, 75, 72], [85, 83, 74, 67], [80, 78, 74, 72], [82, 77, 76, 75], [79, 74, 73, 72], [81, 73, 65], [81, 73, 72], [74, 65], [80, 79], [78, 76], [72], [73], [75], [73], [82], [74], [72], [102], [102], [102], [102], [102], [102], [102], [102], [102], [102], [102], [102], [102], [102], [102], [102], [102], [102], [102], [102], [102], [102], [102], [102], [102], [102], [102], [102], [102], [102], []]
letting durations = [[0], [5, 8, 10], [2, 5, 9], [1, 3, 7], [2, 3, 4], [9, 10, 10], [1, 2, 7], [1, 2, 3], [5, 6, 10], [3, 4, 10], [1, 5, 10], [6, 8, 10], [2, 2, 3], [3, 4, 9], [4, 7, 10], [2, 8, 9], [1, 1, 6], [2, 3, 9], [4, 5, 10], [4, 5, 9], [4, 5, 9], [2, 4, 7], [6, 7, 9], [1, 2, 9], [1, 2, 4], [2, 8, 9], [1, 5, 10], [6, 6, 7], [4, 5, 10], [1, 5, 7], [4, 6, 8], [4, 8, 9], [1, 8, 10], [2, 3, 3], [3, 3, 6], [1, 2, 5], [1, 7, 10], [1, 7, 9], [2, 4, 5], [1, 5, 5], [1, 4, 10], [6, 8, 9], [4, 5, 9], [2, 9, 10], [8, 10, 10], [1, 6, 8], [2, 3, 7], [5, 8, 9], [6, 8, 9], [2, 5, 7], [6, 8, 9], [1, 5, 10], [3, 4, 5], [1, 3, 3], [1, 3, 10], [1, 3, 10], [2, 4, 7], [1, 6, 6], [3, 9, 10], [1, 1, 4], [4, 8, 9], [6, 8, 10], [2, 3, 8], [3, 6, 8], [1, 5, 6], [1, 5, 6], [3, 4, 5], [3, 4, 7], [1, 5, 10], [6, 9, 10], [6, 8, 9], [4, 5, 8], [5, 8, 9], [3, 9, 10], [3, 5, 7], [5, 5, 6], [7, 9, 9], [3, 9, 9], [1, 4, 7], [3, 6, 7], [2, 8, 10], [4, 7, 8], [2, 6, 8], [1, 4, 9], [3, 7, 10], [3, 5, 10], [4, 5, 7], [2, 4, 8], [1, 4, 6], [2, 3, 5], [2, 8, 9], [5, 7, 9], [3, 9, 10], [4, 5, 9], [6, 7, 8], [3, 4, 10], [2, 2, 3], [2, 9, 10], [1, 2, 7], [3, 6, 9], [1, 7, 10], [0]]
letting resourceUsage = [[[0, 0, 0, 0]], [[1, 5, 10, 0], [1, 4, 0, 9], [1, 4, 9, 0]], [[2, 2, 0, 8], [2, 2, 5, 0], [1, 2, 0, 4]], [[4, 5, 0, 9], [4, 4, 7, 0], [4, 2, 0, 5]], [[3, 4, 0, 10], [3, 2, 0, 9], [3, 2, 0, 8]], [[4, 3, 0, 8], [4, 3, 3, 0], [4, 2, 0, 6]], [[1, 4, 0, 6], [1, 4, 8, 0], [1, 3, 0, 3]], [[3, 5, 8, 0], [2, 3, 6, 0], [2, 3, 0, 7]], [[3, 3, 3, 0], [3, 3, 2, 0], [3, 2, 3, 0]], [[5, 2, 4, 0], [4, 1, 4, 0], [3, 1, 4, 0]], [[4, 4, 9, 0], [3, 4, 0, 8], [3, 3, 0, 8]], [[2, 3, 4, 0], [1, 3, 4, 0], [1, 3, 3, 0]], [[3, 2, 9, 0], [2, 2, 0, 6], [2, 2, 0, 4]], [[4, 3, 1, 0], [4, 2, 0, 3], [3, 1, 1, 0]], [[5, 2, 7, 0], [4, 1, 6, 0], [4, 1, 2, 0]], [[3, 4, 0, 6], [2, 2, 0, 6], [2, 2, 2, 0]], [[3, 1, 8, 0], [3, 1, 0, 8], [2, 1, 0, 5]], [[1, 3, 1, 0], [1, 3, 0, 4], [1, 3, 0, 3]], [[5, 3, 0, 3], [5, 3, 0, 1], [5, 1, 0, 1]], [[3, 4, 0, 7], [2, 4, 0, 5], [2, 4, 6, 0]], [[3, 4, 7, 0], [2, 2, 6, 0], [2, 1, 0, 6]], [[4, 3, 0, 7], [2, 3, 6, 0], [2, 3, 5, 0]], [[1, 4, 0, 5], [1, 3, 0, 3], [1, 3, 0, 1]], [[4, 5, 0, 4], [3, 3, 6, 0], [3, 1, 6, 0]], [[4, 5, 7, 0], [2, 5, 6, 0], [1, 5, 0, 1]], [[3, 3, 0, 7], [3, 3, 0, 6], [2, 1, 5, 0]], [[4, 4, 0, 9], [3, 4, 0, 4], [1, 4, 0, 3]], [[3, 3, 0, 1], [2, 2, 3, 0], [1, 2, 1, 0]], [[1, 3, 6, 0], [1, 2, 3, 0], [1, 1, 0, 1]], [[2, 5, 7, 0], [2, 4, 6, 0], [2, 3, 0, 2]], [[4, 5, 7, 0], [3, 4, 5, 0], [3, 2, 0, 2]], [[4, 4, 4, 0], [3, 3, 2, 0], [2, 3, 2, 0]], [[2, 4, 0, 10], [1, 3, 3, 0], [1, 3, 0, 3]], [[2, 4, 0, 6], [2, 3, 0, 5], [2, 3, 4, 0]], [[3, 3, 0, 6], [2, 1, 6, 0], [2, 1, 5, 0]], [[2, 3, 8, 0], [2, 2, 0, 2], [2, 2, 0, 1]], [[3, 3, 9, 0], [2, 2, 9, 0], [2, 2, 8, 0]], [[4, 4, 7, 0], [3, 3, 6, 0], [2, 3, 6, 0]], [[1, 5, 0, 7], [1, 4, 0, 6], [1, 4, 0, 5]], [[5, 3, 0, 3], [4, 2, 7, 0], [3, 2, 0, 3]], [[2, 3, 0, 6], [2, 3, 5, 0], [2, 3, 3, 0]], [[2, 3, 0, 3], [1, 3, 6, 0], [1, 3, 0, 1]], [[2, 4, 7, 0], [1, 3, 0, 7], [1, 3, 6, 0]], [[1, 3, 7, 0], [1, 2, 6, 0], [1, 2, 0, 8]], [[4, 4, 8, 0], [3, 4, 5, 0], [2, 3, 0, 3]], [[5, 4, 0, 7], [4, 3, 7, 0], [3, 3, 0, 7]], [[2, 4, 0, 10], [1, 3, 0, 9], [1, 1, 6, 0]], [[2, 5, 0, 7], [1, 2, 4, 0], [1, 1, 1, 0]], [[1, 5, 5, 0], [1, 4, 2, 0], [1, 4, 1, 0]], [[4, 4, 0, 9], [2, 2, 0, 8], [2, 2, 0, 7]], [[3, 4, 6, 0], [3, 3, 3, 0], [3, 3, 1, 0]], [[4, 3, 3, 0], [3, 3, 0, 6], [2, 3, 1, 0]], [[3, 2, 0, 7], [2, 2, 3, 0], [2, 2, 2, 0]], [[5, 2, 0, 10], [3, 1, 7, 0], [3, 1, 0, 8]], [[4, 4, 6, 0], [3, 2, 5, 0], [3, 2, 4, 0]], [[3, 4, 3, 0], [3, 2, 3, 0], [1, 2, 0, 4]], [[4, 3, 0, 10], [4, 2, 0, 4], [4, 2, 5, 0]], [[4, 2, 0, 6], [4, 1, 3, 0], [4, 1, 0, 4]], [[2, 2, 0, 7], [1, 2, 7, 0], [1, 2, 0, 6]], [[4, 3, 3, 0], [3, 3, 0, 1], [3, 1, 2, 0]], [[4, 2, 8, 0], [3, 2, 7, 0], [3, 2, 0, 3]], [[5, 1, 0, 5], [4, 1, 0, 4], [4, 1, 0, 3]], [[5, 3, 3, 0], [4, 3, 3, 0], [3, 2, 3, 0]], [[1, 4, 0, 9], [1, 3, 3, 0], [1, 2, 2, 0]], [[3, 4, 0, 5], [3, 3, 0, 5], [3, 3, 6, 0]], [[5, 4, 8, 0], [5, 2, 4, 0], [5, 2, 2, 0]], [[3, 4, 0, 10], [3, 4, 7, 0], [3, 2, 0, 6]], [[1, 4, 6, 0], [1, 2, 4, 0], [1, 2, 2, 0]], [[2, 2, 5, 0], [2, 2, 0, 8], [1, 1, 0, 8]], [[4, 3, 8, 0], [4, 2, 0, 4], [4, 1, 0, 4]], [[4, 4, 8, 0], [4, 4, 0, 10], [3, 4, 6, 0]], [[4, 1, 5, 0], [3, 1, 4, 0], [3, 1, 0, 8]], [[1, 3, 0, 9], [1, 2, 0, 7], [1, 1, 1, 0]], [[5, 3, 10, 0], [5, 2, 0, 8], [5, 2, 0, 7]], [[4, 5, 0, 6], [3, 4, 0, 5], [3, 2, 0, 4]], [[2, 4, 7, 0], [2, 2, 0, 6], [2, 2, 0, 4]], [[4, 4, 5, 0], [4, 3, 0, 6], [3, 3, 2, 0]], [[4, 5, 4, 0], [2, 4, 4, 0], [1, 4, 0, 2]], [[5, 4, 7, 0], [4, 3, 5, 0], [2, 2, 1, 0]], [[4, 2, 0, 8], [3, 2, 0, 6], [2, 2, 3, 0]], [[4, 5, 0, 8], [3, 4, 0, 7], [1, 4, 5, 0]], [[2, 4, 0, 5], [2, 3, 0, 4], [2, 3, 6, 0]], [[4, 2, 2, 0], [3, 2, 1, 0], [2, 2, 0, 1]], [[4, 3, 0, 4], [3, 2, 0, 4], [3, 1, 0, 3]], [[2, 5, 5, 0], [2, 4, 4, 0], [1, 2, 4, 0]], [[5, 2, 7, 0], [4, 1, 0, 5], [4, 1, 3, 0]], [[4, 1, 0, 6], [4, 1, 5, 0], [4, 1, 4, 0]], [[4, 4, 4, 0], [2, 4, 4, 0], [1, 3, 2, 0]], [[3, 4, 4, 0], [2, 4, 4, 0], [2, 3, 0, 7]], [[5, 1, 6, 0], [4, 1, 0, 10], [3, 1, 3, 0]], [[5, 5, 0, 1], [3, 4, 0, 1], [3, 3, 0, 1]], [[3, 5, 4, 0], [2, 4, 0, 2], [2, 2, 0, 2]], [[3, 4, 0, 7], [2, 3, 2, 0], [2, 2, 2, 0]], [[4, 2, 0, 10], [4, 2, 7, 0], [4, 2, 0, 9]], [[1, 4, 6, 0], [1, 4, 5, 0], [1, 4, 4, 0]], [[3, 4, 6, 0], [2, 4, 0, 8], [2, 3, 4, 0]], [[4, 5, 9, 0], [3, 5, 0, 8], [3, 5, 0, 7]], [[4, 2, 0, 9], [3, 2, 0, 5], [1, 2, 0, 1]], [[4, 4, 7, 0], [4, 3, 4, 0], [3, 1, 0, 5]], [[3, 3, 6, 0], [1, 2, 0, 7], [1, 2, 3, 0]], [[4, 3, 0, 9], [3, 3, 0, 8], [2, 3, 0, 7]], [[0, 0, 0, 0]]]
